data;

param n:=28;
param p:=4;
param r:=[1] 0 [2] 1 [3] 6 [4] 3 [5] 9 [6] 0 [7] 11 [8] 20 [9] 13 [10] 2 [11] 32 [12] 44 [13] 5 [14] 44 [15] 37 [16] 53 [17] 1 [18] 36 [19] 19 [20] 62 [21] 41 [22] 52 [23] 74 [24] 66 [25] 16 [26] 89 [27] 90 [28] 30 ;
param w:=[1] 96 [2] 51 [3] 67 [4] 22 [5] 55 [6] 51 [7] 97 [8] 11 [9] 57 [10] 95 [11] 92 [12] 35 [13] 54 [14] 30 [15] 59 [16] 90 [17] 32 [18] 8 [19] 31 [20] 15 [21] 39 [22] 50 [23] 84 [24] 26 [25] 71 [26] 16 [27] 68 [28] 15 ;

end;
